p cnf 513 1226
a 307 310 314 317 322 325 329 332 338 454 343 346 351 354 358 471 366 369 373 376 381 384 388 391 398 494 403 406 411 414 418 421 7 13 24 30 2 1 40 18 6 12 35 23 29 50 45 60 55 70 65 80 75 85 90 95 105 100 110 115 120 130 125 135 140 145 150 180 162 154 158 175 167 171 190 185 200 195 209 205 219 214 224 229 234 244 239 249 253 257 262 271 267 276 281 286 290 294 298 302 0
d 341 454 249 253 2 0
d 401 2 494 294 7 298 0
d 361 471 286 290 2 0
d 3 2 0
d 4 1 2 0
d 5 1 2 0
d 8 7 0
d 9 6 7 0
d 10 6 7 0
d 11 1 2 6 7 0
d 14 13 0
d 15 12 13 0
d 16 12 13 0
d 17 1 2 6 7 12 13 0
d 19 6 12 0
d 20 18 6 12 0
d 21 18 6 12 0
d 22 1 2 6 7 12 13 18 0
d 25 24 0
d 26 23 24 0
d 27 23 24 0
d 28 1 2 6 7 12 13 18 23 24 0
d 31 30 0
d 32 29 30 0
d 33 29 30 0
d 34 1 2 6 7 12 13 18 23 24 29 30 0
d 36 23 29 0
d 37 35 23 29 0
d 38 35 23 29 0
d 39 1 2 6 7 12 13 18 23 24 29 30 35 0
d 41 18 35 0
d 42 40 18 35 0
d 43 40 18 35 0
d 44 1 2 6 7 12 13 18 23 24 29 30 35 40 0
d 46 7 12 0
d 47 45 7 12 0
d 48 45 7 12 0
d 49 1 2 6 7 12 13 18 23 24 29 30 35 40 45 0
d 51 45 35 0
d 52 50 45 35 0
d 53 50 45 35 0
d 54 1 2 6 7 12 13 18 23 24 29 30 35 40 45 50 0
d 56 6 13 0
d 57 55 6 13 0
d 58 55 6 13 0
d 59 1 2 6 7 12 13 18 23 24 29 30 35 40 45 50 55 0
d 61 55 35 0
d 62 60 55 35 0
d 63 60 55 35 0
d 64 1 2 6 7 12 13 18 23 24 29 30 35 40 45 50 55 60 0
d 66 7 13 0
d 67 65 7 13 0
d 68 65 7 13 0
d 69 1 2 6 7 12 13 18 23 24 29 30 35 40 45 50 55 60 65 0
d 71 65 35 0
d 72 70 65 35 0
d 73 70 65 35 0
d 74 1 2 6 7 12 13 18 23 24 29 30 35 40 45 50 55 60 65 70 0
d 76 24 29 0
d 77 75 24 29 0
d 78 75 24 29 0
d 79 1 2 6 7 12 13 18 23 24 29 30 35 40 45 50 55 60 65 70 75 0
d 81 18 75 0
d 82 80 18 75 0
d 83 80 18 75 0
d 84 1 2 6 7 12 13 18 23 24 29 30 35 40 45 50 55 60 65 70 75 80 0
d 86 45 75 0
d 87 85 45 75 0
d 88 85 45 75 0
d 89 1 2 6 7 12 13 18 23 24 29 30 35 40 45 50 55 60 65 70 75 80 85 0
d 91 55 75 0
d 92 90 55 75 0
d 93 90 55 75 0
d 94 1 2 6 7 12 13 18 23 24 29 30 35 40 45 50 55 60 65 70 75 80 85 90 0
d 96 65 75 0
d 97 95 65 75 0
d 98 95 65 75 0
d 99 1 2 6 7 12 13 18 23 24 29 30 35 40 45 50 55 60 65 70 75 80 85 90 95 0
d 101 23 30 0
d 102 100 23 30 0
d 103 100 23 30 0
d 104 1 2 6 7 12 13 18 23 24 29 30 35 40 45 50 55 60 65 70 75 80 85 90 95 100 0
d 106 18 100 0
d 107 105 18 100 0
d 108 105 18 100 0
d 109 1 2 6 7 12 13 18 23 24 29 30 35 40 45 50 55 60 65 70 75 80 85 90 95 100 105 0
d 111 45 100 0
d 112 110 45 100 0
d 113 110 45 100 0
d 114 1 2 6 7 12 13 18 23 24 29 30 35 40 45 50 55 60 65 70 75 80 85 90 95 100 105 110 0
d 116 55 100 0
d 117 115 55 100 0
d 118 115 55 100 0
d 119 1 2 6 7 12 13 18 23 24 29 30 35 40 45 50 55 60 65 70 75 80 85 90 95 100 105 110 115 0
d 121 65 100 0
d 122 120 65 100 0
d 123 120 65 100 0
d 124 1 2 6 7 12 13 18 23 24 29 30 35 40 45 50 55 60 65 70 75 80 85 90 95 100 105 110 115 120 0
d 126 24 30 0
d 127 125 24 30 0
d 128 125 24 30 0
d 129 1 2 6 7 12 13 18 23 24 29 30 35 40 45 50 55 60 65 70 75 80 85 90 95 100 105 110 115 120 125 0
d 131 18 125 0
d 132 130 18 125 0
d 133 130 18 125 0
d 134 1 2 6 7 12 13 18 23 24 29 30 35 40 45 50 55 60 65 70 75 80 85 90 95 100 105 110 115 120 125 130 0
d 136 45 125 0
d 137 135 45 125 0
d 138 135 45 125 0
d 139 1 2 6 7 12 13 18 23 24 29 30 35 40 45 50 55 60 65 70 75 80 85 90 95 100 105 110 115 120 125 130 135 0
d 141 55 125 0
d 142 140 55 125 0
d 143 140 55 125 0
d 144 1 2 6 7 12 13 18 23 24 29 30 35 40 45 50 55 60 65 70 75 80 85 90 95 100 105 110 115 120 125 130 135 140 0
d 146 65 125 0
d 147 145 65 125 0
d 148 145 65 125 0
d 149 1 2 6 7 12 13 18 23 24 29 30 35 40 45 50 55 60 65 70 75 80 85 90 95 100 105 110 115 120 125 130 135 140 145 0
d 151 150 2 0
d 152 150 2 0
d 153 1 2 6 7 12 13 18 23 24 29 30 35 40 45 50 55 60 65 70 75 80 85 90 95 100 105 110 115 120 125 130 135 140 145 150 0
d 155 154 7 0
d 156 154 7 0
d 157 1 2 6 7 12 13 18 23 24 29 30 35 40 45 50 55 60 65 70 75 80 85 90 95 100 105 110 115 120 125 130 135 140 145 150 154 0
d 159 158 13 0
d 160 158 13 0
d 161 1 2 6 7 12 13 18 23 24 29 30 35 40 45 50 55 60 65 70 75 80 85 90 95 100 105 110 115 120 125 130 135 140 145 150 154 158 0
d 163 154 158 0
d 164 162 154 158 0
d 165 162 154 158 0
d 166 1 2 6 7 12 13 18 23 24 29 30 35 40 45 50 55 60 65 70 75 80 85 90 95 100 105 110 115 120 125 130 135 140 145 150 154 158 162 0
d 168 167 24 0
d 169 167 24 0
d 170 1 2 6 7 12 13 18 23 24 29 30 35 40 45 50 55 60 65 70 75 80 85 90 95 100 105 110 115 120 125 130 135 140 145 150 154 158 162 167 0
d 172 171 30 0
d 173 171 30 0
d 174 1 2 6 7 12 13 18 23 24 29 30 35 40 45 50 55 60 65 70 75 80 85 90 95 100 105 110 115 120 125 130 135 140 145 150 154 158 162 167 171 0
d 176 167 171 0
d 177 175 167 171 0
d 178 175 167 171 0
d 179 1 2 6 7 12 13 18 23 24 29 30 35 40 45 50 55 60 65 70 75 80 85 90 95 100 105 110 115 120 125 130 135 140 145 150 154 158 162 167 171 175 0
d 181 162 175 0
d 182 180 162 175 0
d 183 180 162 175 0
d 184 1 2 6 7 12 13 18 23 24 29 30 35 40 45 50 55 60 65 70 75 80 85 90 95 100 105 110 115 120 125 130 135 140 145 150 154 158 162 167 171 175 180 0
d 186 7 158 0
d 187 185 7 158 0
d 188 185 7 158 0
d 189 1 2 6 7 12 13 18 23 24 29 30 35 40 45 50 55 60 65 70 75 80 85 90 95 100 105 110 115 120 125 130 135 140 145 150 154 158 162 167 171 175 180 185 0
d 191 185 175 0
d 192 190 185 175 0
d 193 190 185 175 0
d 194 1 2 6 7 12 13 18 23 24 29 30 35 40 45 50 55 60 65 70 75 80 85 90 95 100 105 110 115 120 125 130 135 140 145 150 154 158 162 167 171 175 180 185 190 0
d 196 154 13 0
d 197 195 154 13 0
d 198 195 154 13 0
d 199 1 2 6 7 12 13 18 23 24 29 30 35 40 45 50 55 60 65 70 75 80 85 90 95 100 105 110 115 120 125 130 135 140 145 150 154 158 162 167 171 175 180 185 190 195 0
d 201 195 175 0
d 202 200 195 175 0
d 203 200 195 175 0
d 204 1 2 6 7 12 13 18 23 24 29 30 35 40 45 50 55 60 65 70 75 80 85 90 95 100 105 110 115 120 125 130 135 140 145 150 154 158 162 167 171 175 180 185 190 195 200 0
d 206 205 7 13 0
d 207 205 7 13 0
d 208 1 2 6 7 12 13 18 23 24 29 30 35 40 45 50 55 60 65 70 75 80 85 90 95 100 105 110 115 120 125 130 135 140 145 150 154 158 162 167 171 175 180 185 190 195 200 205 0
d 210 205 175 0
d 211 209 205 175 0
d 212 209 205 175 0
d 213 1 2 6 7 12 13 18 23 24 29 30 35 40 45 50 55 60 65 70 75 80 85 90 95 100 105 110 115 120 125 130 135 140 145 150 154 158 162 167 171 175 180 185 190 195 200 205 209 0
d 215 24 171 0
d 216 214 24 171 0
d 217 214 24 171 0
d 218 1 2 6 7 12 13 18 23 24 29 30 35 40 45 50 55 60 65 70 75 80 85 90 95 100 105 110 115 120 125 130 135 140 145 150 154 158 162 167 171 175 180 185 190 195 200 205 209 214 0
d 220 162 214 0
d 221 219 162 214 0
d 222 219 162 214 0
d 223 1 2 6 7 12 13 18 23 24 29 30 35 40 45 50 55 60 65 70 75 80 85 90 95 100 105 110 115 120 125 130 135 140 145 150 154 158 162 167 171 175 180 185 190 195 200 205 209 214 219 0
d 225 185 214 0
d 226 224 185 214 0
d 227 224 185 214 0
d 228 1 2 6 7 12 13 18 23 24 29 30 35 40 45 50 55 60 65 70 75 80 85 90 95 100 105 110 115 120 125 130 135 140 145 150 154 158 162 167 171 175 180 185 190 195 200 205 209 214 219 224 0
d 230 195 214 0
d 231 229 195 214 0
d 232 229 195 214 0
d 233 1 2 6 7 12 13 18 23 24 29 30 35 40 45 50 55 60 65 70 75 80 85 90 95 100 105 110 115 120 125 130 135 140 145 150 154 158 162 167 171 175 180 185 190 195 200 205 209 214 219 224 229 0
d 235 205 214 0
d 236 234 205 214 0
d 237 234 205 214 0
d 238 1 2 6 7 12 13 18 23 24 29 30 35 40 45 50 55 60 65 70 75 80 85 90 95 100 105 110 115 120 125 130 135 140 145 150 154 158 162 167 171 175 180 185 190 195 200 205 209 214 219 224 229 234 0
d 240 167 30 0
d 241 239 167 30 0
d 242 239 167 30 0
d 243 1 2 6 7 12 13 18 23 24 29 30 35 40 45 50 55 60 65 70 75 80 85 90 95 100 105 110 115 120 125 130 135 140 145 150 154 158 162 167 171 175 180 185 190 195 200 205 209 214 219 224 229 234 239 0
d 245 162 239 0
d 246 244 162 239 0
d 247 244 162 239 0
d 248 1 2 6 7 12 13 18 23 24 29 30 35 40 45 50 55 60 65 70 75 80 85 90 95 100 105 110 115 120 125 130 135 140 145 150 154 158 162 167 171 175 180 185 190 195 200 205 209 214 219 224 229 234 239 244 0
d 250 249 185 0
d 251 249 185 0
d 252 1 2 6 7 12 13 18 23 24 29 30 35 40 45 50 55 60 65 70 75 80 85 90 95 100 105 110 115 120 125 130 135 140 145 150 154 158 162 167 171 175 180 185 190 195 200 205 209 214 219 224 229 234 239 244 249 0
d 254 253 239 0
d 255 253 239 0
d 256 1 2 6 7 12 13 18 23 24 29 30 35 40 45 50 55 60 65 70 75 80 85 90 95 100 105 110 115 120 125 130 135 140 145 150 154 158 162 167 171 175 180 185 190 195 200 205 209 214 219 224 229 234 239 244 249 253 0
d 258 195 239 0
d 259 257 195 239 0
d 260 257 195 239 0
d 261 1 2 6 7 12 13 18 23 24 29 30 35 40 45 50 55 60 65 70 75 80 85 90 95 100 105 110 115 120 125 130 135 140 145 150 154 158 162 167 171 175 180 185 190 195 200 205 209 214 219 224 229 234 239 244 249 253 257 0
d 263 205 239 0
d 264 262 205 239 0
d 265 262 205 239 0
d 266 1 2 6 7 12 13 18 23 24 29 30 35 40 45 50 55 60 65 70 75 80 85 90 95 100 105 110 115 120 125 130 135 140 145 150 154 158 162 167 171 175 180 185 190 195 200 205 209 214 219 224 229 234 239 244 249 253 257 262 0
d 268 267 24 30 0
d 269 267 24 30 0
d 270 1 2 6 7 12 13 18 23 24 29 30 35 40 45 50 55 60 65 70 75 80 85 90 95 100 105 110 115 120 125 130 135 140 145 150 154 158 162 167 171 175 180 185 190 195 200 205 209 214 219 224 229 234 239 244 249 253 257 262 267 0
d 272 162 267 0
d 273 271 162 267 0
d 274 271 162 267 0
d 275 1 2 6 7 12 13 18 23 24 29 30 35 40 45 50 55 60 65 70 75 80 85 90 95 100 105 110 115 120 125 130 135 140 145 150 154 158 162 167 171 175 180 185 190 195 200 205 209 214 219 224 229 234 239 244 249 253 257 262 267 271 0
d 277 185 267 0
d 278 276 185 267 0
d 279 276 185 267 0
d 280 1 2 6 7 12 13 18 23 24 29 30 35 40 45 50 55 60 65 70 75 80 85 90 95 100 105 110 115 120 125 130 135 140 145 150 154 158 162 167 171 175 180 185 190 195 200 205 209 214 219 224 229 234 239 244 249 253 257 262 267 271 276 0
d 282 195 267 0
d 283 281 195 267 0
d 284 281 195 267 0
d 285 1 2 6 7 12 13 18 23 24 29 30 35 40 45 50 55 60 65 70 75 80 85 90 95 100 105 110 115 120 125 130 135 140 145 150 154 158 162 167 171 175 180 185 190 195 200 205 209 214 219 224 229 234 239 244 249 253 257 262 267 271 276 281 0
d 287 286 205 0
d 288 286 205 0
d 289 1 2 6 7 12 13 18 23 24 29 30 35 40 45 50 55 60 65 70 75 80 85 90 95 100 105 110 115 120 125 130 135 140 145 150 154 158 162 167 171 175 180 185 190 195 200 205 209 214 219 224 229 234 239 244 249 253 257 262 267 271 276 281 286 0
d 291 290 267 0
d 292 290 267 0
d 293 1 2 6 7 12 13 18 23 24 29 30 35 40 45 50 55 60 65 70 75 80 85 90 95 100 105 110 115 120 125 130 135 140 145 150 154 158 162 167 171 175 180 185 190 195 200 205 209 214 219 224 229 234 239 244 249 253 257 262 267 271 276 281 286 290 0
d 295 294 239 0
d 296 294 239 0
d 297 1 2 6 7 12 13 18 23 24 29 30 35 40 45 50 55 60 65 70 75 80 85 90 95 100 105 110 115 120 125 130 135 140 145 150 154 158 162 167 171 175 180 185 190 195 200 205 209 214 219 224 229 234 239 244 249 253 257 262 267 271 276 281 286 290 294 0
d 299 298 158 0
d 300 298 158 0
d 301 1 2 6 7 12 13 18 23 24 29 30 35 40 45 50 55 60 65 70 75 80 85 90 95 100 105 110 115 120 125 130 135 140 145 150 154 158 162 167 171 175 180 185 190 195 200 205 209 214 219 224 229 234 239 244 249 253 257 262 267 271 276 281 286 290 294 298 0
d 303 205 267 0
d 304 302 205 267 0
d 305 302 205 267 0
d 306 1 2 6 7 12 13 18 23 24 29 30 35 40 45 50 55 60 65 70 75 80 85 90 95 100 105 110 115 120 125 130 135 140 145 150 154 158 162 167 171 175 180 185 190 195 200 205 209 214 219 224 229 234 239 244 249 253 257 262 267 271 276 281 286 290 294 298 302 0
d 308 150 307 0
d 309 150 307 180 0
d 311 150 310 0
d 312 150 310 190 0
d 313 150 307 180 310 190 0
d 315 150 314 0
d 316 150 314 200 0
d 318 150 317 0
d 319 150 317 209 0
d 320 150 314 200 317 209 0
d 321 150 307 180 310 190 314 200 317 209 0
d 323 150 322 0
d 324 150 322 219 0
d 326 150 325 0
d 327 150 325 224 0
d 328 150 322 219 325 224 0
d 330 150 329 0
d 331 150 329 229 0
d 333 150 332 0
d 334 150 332 234 0
d 335 150 329 229 332 234 0
d 336 150 322 219 325 224 329 229 332 234 0
d 337 150 307 180 310 190 314 200 317 209 322 219 325 224 329 229 332 234 0
d 339 150 338 0
d 340 150 338 244 0
d 342 150 338 244 454 249 253 2 0
d 344 150 343 0
d 345 150 343 257 0
d 347 150 346 0
d 348 150 346 262 0
d 349 150 343 257 346 262 0
d 350 150 338 244 454 249 253 2 343 257 346 262 0
d 352 150 351 0
d 353 150 351 271 0
d 355 150 354 0
d 356 150 354 276 0
d 357 150 351 271 354 276 0
d 359 150 358 0
d 360 150 358 281 0
d 362 150 358 281 471 286 290 2 0
d 363 150 351 271 354 276 358 281 471 286 290 2 0
d 364 150 338 244 454 249 253 2 343 257 346 262 351 271 354 276 358 281 471 286 290 0
d 365 150 307 180 310 190 314 200 317 209 322 219 325 224 329 229 332 234 338 244 454 249 253 2 343 257 346 262 351 271 354 276 358 281 471 286 290 0
d 367 2 366 0
d 368 2 366 180 0
d 370 2 369 0
d 371 2 369 190 0
d 372 2 366 180 369 190 0
d 374 2 373 0
d 375 2 373 200 0
d 377 2 376 0
d 378 2 376 209 0
d 379 2 373 200 376 209 0
d 380 2 366 180 369 190 373 200 376 209 0
d 382 2 381 0
d 383 2 381 219 0
d 385 2 384 0
d 386 2 384 224 0
d 387 2 381 219 384 224 0
d 389 2 388 0
d 390 2 388 229 0
d 392 2 391 0
d 393 2 391 234 0
d 394 2 391 234 0
d 395 2 388 229 391 234 0
d 396 2 381 219 384 224 388 229 391 234 0
d 397 2 366 180 369 190 373 200 376 209 381 219 384 224 388 229 391 234 0
d 399 2 398 0
d 400 2 398 244 0
d 402 2 398 244 494 294 7 298 0
d 404 2 403 0
d 405 2 403 257 0
d 407 2 406 0
d 408 2 406 262 0
d 409 2 403 257 406 262 0
d 410 2 398 244 494 294 7 298 403 257 406 262 0
d 412 2 411 0
d 413 2 411 271 0
d 415 2 414 0
d 416 2 414 276 0
d 417 2 411 271 414 276 0
d 419 2 418 0
d 420 2 418 281 0
d 422 2 421 0
d 423 2 421 302 0
d 424 2 418 281 421 302 0
d 425 2 411 271 414 276 418 281 421 302 0
d 426 2 398 244 494 294 7 298 403 257 406 262 411 271 414 276 418 281 421 302 0
d 427 2 366 180 369 190 373 200 376 209 381 219 384 224 388 229 391 234 398 244 494 294 7 298 403 257 406 262 411 271 414 276 418 281 421 302 0
d 428 150 307 180 310 190 314 200 317 209 322 219 325 224 329 229 332 234 338 244 454 249 253 2 343 257 346 262 351 271 354 276 358 281 471 286 290 366 369 373 376 381 384 388 391 398 494 294 7 298 403 406 411 414 418 421 302 0
d 429 1 307 0
d 430 1 307 40 0
d 431 1 310 0
d 432 1 310 50 0
d 433 1 307 40 310 50 0
d 434 1 314 0
d 435 1 314 60 0
d 436 1 317 0
d 437 1 317 70 0
d 438 1 314 60 317 70 0
d 439 1 307 40 310 50 314 60 317 70 0
d 440 1 322 0
d 441 1 322 80 0
d 442 1 325 0
d 443 1 325 85 0
d 444 1 322 80 325 85 0
d 445 1 329 0
d 446 1 329 90 0
d 447 1 332 0
d 448 1 332 95 0
d 449 1 329 90 332 95 0
d 450 1 322 80 325 85 329 90 332 95 0
d 451 1 307 40 310 50 314 60 317 70 322 80 325 85 329 90 332 95 0
d 452 1 338 0
d 453 1 338 105 0
d 455 1 454 0
d 456 1 454 110 0
d 457 1 338 105 454 110 0
d 458 1 343 0
d 459 1 343 115 0
d 460 1 346 0
d 461 1 346 120 0
d 462 1 343 115 346 120 0
d 463 1 338 105 454 110 343 115 346 120 0
d 464 1 351 0
d 465 1 351 130 0
d 466 1 354 0
d 467 1 354 135 0
d 468 1 351 130 354 135 0
d 469 1 358 0
d 470 1 358 140 0
d 472 1 471 0
d 473 1 471 145 0
d 474 1 358 140 471 145 0
d 475 1 351 130 354 135 358 140 471 145 0
d 476 1 338 105 454 110 343 115 346 120 351 130 354 135 358 140 471 145 0
d 477 1 307 40 310 50 314 60 317 70 322 80 325 85 329 90 332 95 338 105 454 110 343 115 346 120 351 130 354 135 358 140 471 145 0
d 478 2 366 40 0
d 479 2 369 50 0
d 480 2 366 40 369 50 0
d 481 2 373 60 0
d 482 2 376 70 0
d 483 2 373 60 376 70 0
d 484 2 366 40 369 50 373 60 376 70 0
d 485 2 381 80 0
d 486 2 384 85 0
d 487 2 381 80 384 85 0
d 488 2 388 90 0
d 489 2 391 95 0
d 490 2 388 90 391 95 0
d 491 2 381 80 384 85 388 90 391 95 0
d 492 2 366 40 369 50 373 60 376 70 381 80 384 85 388 90 391 95 0
d 493 2 398 105 0
d 495 2 494 0
d 496 2 494 110 0
d 497 2 398 105 494 110 0
d 498 2 403 115 0
d 499 2 406 120 0
d 500 2 403 115 406 120 0
d 501 2 398 105 494 110 403 115 406 120 0
d 502 2 411 130 0
d 503 2 414 135 0
d 504 2 411 130 414 135 0
d 505 2 418 140 0
d 506 2 421 145 0
d 507 2 418 140 421 145 0
d 508 2 411 130 414 135 418 140 421 145 0
d 509 2 398 105 494 110 403 115 406 120 411 130 414 135 418 140 421 145 0
d 510 2 366 40 369 50 373 60 376 70 381 80 384 85 388 90 391 95 398 105 494 110 403 115 406 120 411 130 414 135 418 140 421 145 0
d 511 1 307 40 310 50 314 60 317 70 322 80 325 85 329 90 332 95 338 105 454 110 343 115 346 120 351 130 354 135 358 140 471 145 2 366 369 373 376 381 384 388 391 398 494 403 406 411 414 418 421 0
d 512 150 307 180 310 190 314 200 317 209 322 219 325 224 329 229 332 234 338 244 454 249 253 2 343 257 346 262 351 271 354 276 358 281 471 286 290 366 369 373 376 381 384 388 391 398 494 294 7 298 403 406 411 414 418 421 302 1 40 50 60 70 80 85 90 95 105 110 115 120 130 135 140 145 0
d 513 1 2 6 7 12 13 18 23 24 29 30 35 40 45 50 55 60 65 70 75 80 85 90 95 100 105 110 115 120 125 130 135 140 145 150 154 158 162 167 171 175 180 185 190 195 200 205 209 214 219 224 229 234 239 244 249 253 257 262 267 271 276 281 286 290 294 298 302 307 310 314 317 322 325 329 332 338 454 343 346 351 354 358 471 366 369 373 376 381 384 388 391 398 494 403 406 411 414 418 421 0
3 2 0
-3 -2 0
4 -1 -3 0
4 1 3 0
-4 -1 3 0
-4 1 -3 0
5 4 0
-5 -4 0
8 7 0
-8 -7 0
9 -6 -8 0
9 6 8 0
-9 -6 8 0
-9 6 -8 0
10 9 0
-10 -9 0
11 -5 0
11 -10 0
-11 5 10 0
14 13 0
-14 -13 0
15 -12 -14 0
15 12 14 0
-15 -12 14 0
-15 12 -14 0
16 15 0
-16 -15 0
17 -11 0
17 -16 0
-17 11 16 0
-19 6 0
-19 12 0
19 -6 -12 0
20 -18 -19 0
20 18 19 0
-20 -18 19 0
-20 18 -19 0
21 20 0
-21 -20 0
22 -17 0
22 -21 0
-22 17 21 0
25 24 0
-25 -24 0
26 -23 -25 0
26 23 25 0
-26 -23 25 0
-26 23 -25 0
27 26 0
-27 -26 0
28 -22 0
28 -27 0
-28 22 27 0
31 30 0
-31 -30 0
32 -29 -31 0
32 29 31 0
-32 -29 31 0
-32 29 -31 0
33 32 0
-33 -32 0
34 -28 0
34 -33 0
-34 28 33 0
-36 23 0
-36 29 0
36 -23 -29 0
37 -35 -36 0
37 35 36 0
-37 -35 36 0
-37 35 -36 0
38 37 0
-38 -37 0
39 -34 0
39 -38 0
-39 34 38 0
-41 18 0
-41 35 0
41 -18 -35 0
42 -40 -41 0
42 40 41 0
-42 -40 41 0
-42 40 -41 0
43 42 0
-43 -42 0
44 -39 0
44 -43 0
-44 39 43 0
-46 7 0
-46 12 0
46 -7 -12 0
47 -45 -46 0
47 45 46 0
-47 -45 46 0
-47 45 -46 0
48 47 0
-48 -47 0
49 -44 0
49 -48 0
-49 44 48 0
-51 45 0
-51 35 0
51 -45 -35 0
52 -50 -51 0
52 50 51 0
-52 -50 51 0
-52 50 -51 0
53 52 0
-53 -52 0
54 -49 0
54 -53 0
-54 49 53 0
-56 6 0
-56 13 0
56 -6 -13 0
57 -55 -56 0
57 55 56 0
-57 -55 56 0
-57 55 -56 0
58 57 0
-58 -57 0
59 -54 0
59 -58 0
-59 54 58 0
-61 55 0
-61 35 0
61 -55 -35 0
62 -60 -61 0
62 60 61 0
-62 -60 61 0
-62 60 -61 0
63 62 0
-63 -62 0
64 -59 0
64 -63 0
-64 59 63 0
-66 7 0
-66 13 0
66 -7 -13 0
67 -65 -66 0
67 65 66 0
-67 -65 66 0
-67 65 -66 0
68 67 0
-68 -67 0
69 -64 0
69 -68 0
-69 64 68 0
-71 65 0
-71 35 0
71 -65 -35 0
72 -70 -71 0
72 70 71 0
-72 -70 71 0
-72 70 -71 0
73 72 0
-73 -72 0
74 -69 0
74 -73 0
-74 69 73 0
-76 24 0
-76 29 0
76 -24 -29 0
77 -75 -76 0
77 75 76 0
-77 -75 76 0
-77 75 -76 0
78 77 0
-78 -77 0
79 -74 0
79 -78 0
-79 74 78 0
-81 18 0
-81 75 0
81 -18 -75 0
82 -80 -81 0
82 80 81 0
-82 -80 81 0
-82 80 -81 0
83 82 0
-83 -82 0
84 -79 0
84 -83 0
-84 79 83 0
-86 45 0
-86 75 0
86 -45 -75 0
87 -85 -86 0
87 85 86 0
-87 -85 86 0
-87 85 -86 0
88 87 0
-88 -87 0
89 -84 0
89 -88 0
-89 84 88 0
-91 55 0
-91 75 0
91 -55 -75 0
92 -90 -91 0
92 90 91 0
-92 -90 91 0
-92 90 -91 0
93 92 0
-93 -92 0
94 -89 0
94 -93 0
-94 89 93 0
-96 65 0
-96 75 0
96 -65 -75 0
97 -95 -96 0
97 95 96 0
-97 -95 96 0
-97 95 -96 0
98 97 0
-98 -97 0
99 -94 0
99 -98 0
-99 94 98 0
-101 23 0
-101 30 0
101 -23 -30 0
102 -100 -101 0
102 100 101 0
-102 -100 101 0
-102 100 -101 0
103 102 0
-103 -102 0
104 -99 0
104 -103 0
-104 99 103 0
-106 18 0
-106 100 0
106 -18 -100 0
107 -105 -106 0
107 105 106 0
-107 -105 106 0
-107 105 -106 0
108 107 0
-108 -107 0
109 -104 0
109 -108 0
-109 104 108 0
-111 45 0
-111 100 0
111 -45 -100 0
112 -110 -111 0
112 110 111 0
-112 -110 111 0
-112 110 -111 0
113 112 0
-113 -112 0
114 -109 0
114 -113 0
-114 109 113 0
-116 55 0
-116 100 0
116 -55 -100 0
117 -115 -116 0
117 115 116 0
-117 -115 116 0
-117 115 -116 0
118 117 0
-118 -117 0
119 -114 0
119 -118 0
-119 114 118 0
-121 65 0
-121 100 0
121 -65 -100 0
122 -120 -121 0
122 120 121 0
-122 -120 121 0
-122 120 -121 0
123 122 0
-123 -122 0
124 -119 0
124 -123 0
-124 119 123 0
-126 24 0
-126 30 0
126 -24 -30 0
127 -125 -126 0
127 125 126 0
-127 -125 126 0
-127 125 -126 0
128 127 0
-128 -127 0
129 -124 0
129 -128 0
-129 124 128 0
-131 18 0
-131 125 0
131 -18 -125 0
132 -130 -131 0
132 130 131 0
-132 -130 131 0
-132 130 -131 0
133 132 0
-133 -132 0
134 -129 0
134 -133 0
-134 129 133 0
-136 45 0
-136 125 0
136 -45 -125 0
137 -135 -136 0
137 135 136 0
-137 -135 136 0
-137 135 -136 0
138 137 0
-138 -137 0
139 -134 0
139 -138 0
-139 134 138 0
-141 55 0
-141 125 0
141 -55 -125 0
142 -140 -141 0
142 140 141 0
-142 -140 141 0
-142 140 -141 0
143 142 0
-143 -142 0
144 -139 0
144 -143 0
-144 139 143 0
-146 65 0
-146 125 0
146 -65 -125 0
147 -145 -146 0
147 145 146 0
-147 -145 146 0
-147 145 -146 0
148 147 0
-148 -147 0
149 -144 0
149 -148 0
-149 144 148 0
151 -150 -3 0
151 150 3 0
-151 -150 3 0
-151 150 -3 0
152 151 0
-152 -151 0
153 -149 0
153 -152 0
-153 149 152 0
155 -154 -8 0
155 154 8 0
-155 -154 8 0
-155 154 -8 0
156 155 0
-156 -155 0
157 -153 0
157 -156 0
-157 153 156 0
159 -158 -14 0
159 158 14 0
-159 -158 14 0
-159 158 -14 0
160 159 0
-160 -159 0
161 -157 0
161 -160 0
-161 157 160 0
-163 154 0
-163 158 0
163 -154 -158 0
164 -162 -163 0
164 162 163 0
-164 -162 163 0
-164 162 -163 0
165 164 0
-165 -164 0
166 -161 0
166 -165 0
-166 161 165 0
168 -167 -25 0
168 167 25 0
-168 -167 25 0
-168 167 -25 0
169 168 0
-169 -168 0
170 -166 0
170 -169 0
-170 166 169 0
172 -171 -31 0
172 171 31 0
-172 -171 31 0
-172 171 -31 0
173 172 0
-173 -172 0
174 -170 0
174 -173 0
-174 170 173 0
-176 167 0
-176 171 0
176 -167 -171 0
177 -175 -176 0
177 175 176 0
-177 -175 176 0
-177 175 -176 0
178 177 0
-178 -177 0
179 -174 0
179 -178 0
-179 174 178 0
-181 162 0
-181 175 0
181 -162 -175 0
182 -180 -181 0
182 180 181 0
-182 -180 181 0
-182 180 -181 0
183 182 0
-183 -182 0
184 -179 0
184 -183 0
-184 179 183 0
-186 7 0
-186 158 0
186 -7 -158 0
187 -185 -186 0
187 185 186 0
-187 -185 186 0
-187 185 -186 0
188 187 0
-188 -187 0
189 -184 0
189 -188 0
-189 184 188 0
-191 185 0
-191 175 0
191 -185 -175 0
192 -190 -191 0
192 190 191 0
-192 -190 191 0
-192 190 -191 0
193 192 0
-193 -192 0
194 -189 0
194 -193 0
-194 189 193 0
-196 154 0
-196 13 0
196 -154 -13 0
197 -195 -196 0
197 195 196 0
-197 -195 196 0
-197 195 -196 0
198 197 0
-198 -197 0
199 -194 0
199 -198 0
-199 194 198 0
-201 195 0
-201 175 0
201 -195 -175 0
202 -200 -201 0
202 200 201 0
-202 -200 201 0
-202 200 -201 0
203 202 0
-203 -202 0
204 -199 0
204 -203 0
-204 199 203 0
206 -205 -66 0
206 205 66 0
-206 -205 66 0
-206 205 -66 0
207 206 0
-207 -206 0
208 -204 0
208 -207 0
-208 204 207 0
-210 205 0
-210 175 0
210 -205 -175 0
211 -209 -210 0
211 209 210 0
-211 -209 210 0
-211 209 -210 0
212 211 0
-212 -211 0
213 -208 0
213 -212 0
-213 208 212 0
-215 24 0
-215 171 0
215 -24 -171 0
216 -214 -215 0
216 214 215 0
-216 -214 215 0
-216 214 -215 0
217 216 0
-217 -216 0
218 -213 0
218 -217 0
-218 213 217 0
-220 162 0
-220 214 0
220 -162 -214 0
221 -219 -220 0
221 219 220 0
-221 -219 220 0
-221 219 -220 0
222 221 0
-222 -221 0
223 -218 0
223 -222 0
-223 218 222 0
-225 185 0
-225 214 0
225 -185 -214 0
226 -224 -225 0
226 224 225 0
-226 -224 225 0
-226 224 -225 0
227 226 0
-227 -226 0
228 -223 0
228 -227 0
-228 223 227 0
-230 195 0
-230 214 0
230 -195 -214 0
231 -229 -230 0
231 229 230 0
-231 -229 230 0
-231 229 -230 0
232 231 0
-232 -231 0
233 -228 0
233 -232 0
-233 228 232 0
-235 205 0
-235 214 0
235 -205 -214 0
236 -234 -235 0
236 234 235 0
-236 -234 235 0
-236 234 -235 0
237 236 0
-237 -236 0
238 -233 0
238 -237 0
-238 233 237 0
-240 167 0
-240 30 0
240 -167 -30 0
241 -239 -240 0
241 239 240 0
-241 -239 240 0
-241 239 -240 0
242 241 0
-242 -241 0
243 -238 0
243 -242 0
-243 238 242 0
-245 162 0
-245 239 0
245 -162 -239 0
246 -244 -245 0
246 244 245 0
-246 -244 245 0
-246 244 -245 0
247 246 0
-247 -246 0
248 -243 0
248 -247 0
-248 243 247 0
250 -249 -185 0
250 249 185 0
-250 -249 185 0
-250 249 -185 0
251 250 0
-251 -250 0
252 -248 0
252 -251 0
-252 248 251 0
254 -253 -239 0
254 253 239 0
-254 -253 239 0
-254 253 -239 0
255 254 0
-255 -254 0
256 -252 0
256 -255 0
-256 252 255 0
-258 195 0
-258 239 0
258 -195 -239 0
259 -257 -258 0
259 257 258 0
-259 -257 258 0
-259 257 -258 0
260 259 0
-260 -259 0
261 -256 0
261 -260 0
-261 256 260 0
-263 205 0
-263 239 0
263 -205 -239 0
264 -262 -263 0
264 262 263 0
-264 -262 263 0
-264 262 -263 0
265 264 0
-265 -264 0
266 -261 0
266 -265 0
-266 261 265 0
268 -267 -126 0
268 267 126 0
-268 -267 126 0
-268 267 -126 0
269 268 0
-269 -268 0
270 -266 0
270 -269 0
-270 266 269 0
-272 162 0
-272 267 0
272 -162 -267 0
273 -271 -272 0
273 271 272 0
-273 -271 272 0
-273 271 -272 0
274 273 0
-274 -273 0
275 -270 0
275 -274 0
-275 270 274 0
-277 185 0
-277 267 0
277 -185 -267 0
278 -276 -277 0
278 276 277 0
-278 -276 277 0
-278 276 -277 0
279 278 0
-279 -278 0
280 -275 0
280 -279 0
-280 275 279 0
-282 195 0
-282 267 0
282 -195 -267 0
283 -281 -282 0
283 281 282 0
-283 -281 282 0
-283 281 -282 0
284 283 0
-284 -283 0
285 -280 0
285 -284 0
-285 280 284 0
287 -286 -205 0
287 286 205 0
-287 -286 205 0
-287 286 -205 0
288 287 0
-288 -287 0
289 -285 0
289 -288 0
-289 285 288 0
291 -290 -267 0
291 290 267 0
-291 -290 267 0
-291 290 -267 0
292 291 0
-292 -291 0
293 -289 0
293 -292 0
-293 289 292 0
295 -294 -239 0
295 294 239 0
-295 -294 239 0
-295 294 -239 0
296 295 0
-296 -295 0
297 -293 0
297 -296 0
-297 293 296 0
299 -298 -158 0
299 298 158 0
-299 -298 158 0
-299 298 -158 0
300 299 0
-300 -299 0
301 -297 0
301 -300 0
-301 297 300 0
-303 205 0
-303 267 0
303 -205 -267 0
304 -302 -303 0
304 302 303 0
-304 -302 303 0
-304 302 -303 0
305 304 0
-305 -304 0
306 -301 0
306 -305 0
-306 301 305 0
-308 150 0
-308 307 0
308 -150 -307 0
-309 308 0
-309 180 0
309 -308 -180 0
-311 150 0
-311 310 0
311 -150 -310 0
-312 311 0
-312 190 0
312 -311 -190 0
313 -309 0
313 -312 0
-313 309 312 0
-315 150 0
-315 314 0
315 -150 -314 0
-316 315 0
-316 200 0
316 -315 -200 0
-318 150 0
-318 317 0
318 -150 -317 0
-319 318 0
-319 209 0
319 -318 -209 0
320 -316 0
320 -319 0
-320 316 319 0
321 -313 0
321 -320 0
-321 313 320 0
-323 150 0
-323 322 0
323 -150 -322 0
-324 323 0
-324 219 0
324 -323 -219 0
-326 150 0
-326 325 0
326 -150 -325 0
-327 326 0
-327 224 0
327 -326 -224 0
328 -324 0
328 -327 0
-328 324 327 0
-330 150 0
-330 329 0
330 -150 -329 0
-331 330 0
-331 229 0
331 -330 -229 0
-333 150 0
-333 332 0
333 -150 -332 0
-334 333 0
-334 234 0
334 -333 -234 0
335 -331 0
335 -334 0
-335 331 334 0
336 -328 0
336 -335 0
-336 328 335 0
337 -321 0
337 -336 0
-337 321 336 0
-339 150 0
-339 338 0
339 -150 -338 0
-340 339 0
-340 244 0
340 -339 -244 0
342 -340 0
342 -341 0
-342 340 341 0
-344 150 0
-344 343 0
344 -150 -343 0
-345 344 0
-345 257 0
345 -344 -257 0
-347 150 0
-347 346 0
347 -150 -346 0
-348 347 0
-348 262 0
348 -347 -262 0
349 -345 0
349 -348 0
-349 345 348 0
350 -342 0
350 -349 0
-350 342 349 0
-352 150 0
-352 351 0
352 -150 -351 0
-353 352 0
-353 271 0
353 -352 -271 0
-355 150 0
-355 354 0
355 -150 -354 0
-356 355 0
-356 276 0
356 -355 -276 0
357 -353 0
357 -356 0
-357 353 356 0
-359 150 0
-359 358 0
359 -150 -358 0
-360 359 0
-360 281 0
360 -359 -281 0
362 -360 0
362 -361 0
-362 360 361 0
363 -357 0
363 -362 0
-363 357 362 0
364 -350 0
364 -363 0
-364 350 363 0
365 -337 0
365 -364 0
-365 337 364 0
-367 2 0
-367 366 0
367 -2 -366 0
-368 367 0
-368 180 0
368 -367 -180 0
-370 2 0
-370 369 0
370 -2 -369 0
-371 370 0
-371 190 0
371 -370 -190 0
372 -368 0
372 -371 0
-372 368 371 0
-374 2 0
-374 373 0
374 -2 -373 0
-375 374 0
-375 200 0
375 -374 -200 0
-377 2 0
-377 376 0
377 -2 -376 0
-378 377 0
-378 209 0
378 -377 -209 0
379 -375 0
379 -378 0
-379 375 378 0
380 -372 0
380 -379 0
-380 372 379 0
-382 2 0
-382 381 0
382 -2 -381 0
-383 382 0
-383 219 0
383 -382 -219 0
-385 2 0
-385 384 0
385 -2 -384 0
-386 385 0
-386 224 0
386 -385 -224 0
387 -383 0
387 -386 0
-387 383 386 0
-389 2 0
-389 388 0
389 -2 -388 0
-390 389 0
-390 229 0
390 -389 -229 0
-392 2 0
-392 391 0
392 -2 -391 0
393 -392 0
393 -234 0
-393 392 234 0
394 393 0
-394 -393 0
395 -390 0
395 -394 0
-395 390 394 0
396 -387 0
396 -395 0
-396 387 395 0
397 -380 0
397 -396 0
-397 380 396 0
-399 2 0
-399 398 0
399 -2 -398 0
-400 399 0
-400 244 0
400 -399 -244 0
402 -400 0
402 -401 0
-402 400 401 0
-404 2 0
-404 403 0
404 -2 -403 0
-405 404 0
-405 257 0
405 -404 -257 0
-407 2 0
-407 406 0
407 -2 -406 0
-408 407 0
-408 262 0
408 -407 -262 0
409 -405 0
409 -408 0
-409 405 408 0
410 -402 0
410 -409 0
-410 402 409 0
-412 2 0
-412 411 0
412 -2 -411 0
-413 412 0
-413 271 0
413 -412 -271 0
-415 2 0
-415 414 0
415 -2 -414 0
-416 415 0
-416 276 0
416 -415 -276 0
417 -413 0
417 -416 0
-417 413 416 0
-419 2 0
-419 418 0
419 -2 -418 0
-420 419 0
-420 281 0
420 -419 -281 0
-422 2 0
-422 421 0
422 -2 -421 0
-423 422 0
-423 302 0
423 -422 -302 0
424 -420 0
424 -423 0
-424 420 423 0
425 -417 0
425 -424 0
-425 417 424 0
426 -410 0
426 -425 0
-426 410 425 0
427 -397 0
427 -426 0
-427 397 426 0
428 -365 0
428 -427 0
-428 365 427 0
-429 1 0
-429 307 0
429 -1 -307 0
-430 429 0
-430 40 0
430 -429 -40 0
-431 1 0
-431 310 0
431 -1 -310 0
-432 431 0
-432 50 0
432 -431 -50 0
433 -430 0
433 -432 0
-433 430 432 0
-434 1 0
-434 314 0
434 -1 -314 0
-435 434 0
-435 60 0
435 -434 -60 0
-436 1 0
-436 317 0
436 -1 -317 0
-437 436 0
-437 70 0
437 -436 -70 0
438 -435 0
438 -437 0
-438 435 437 0
439 -433 0
439 -438 0
-439 433 438 0
-440 1 0
-440 322 0
440 -1 -322 0
-441 440 0
-441 80 0
441 -440 -80 0
-442 1 0
-442 325 0
442 -1 -325 0
-443 442 0
-443 85 0
443 -442 -85 0
444 -441 0
444 -443 0
-444 441 443 0
-445 1 0
-445 329 0
445 -1 -329 0
-446 445 0
-446 90 0
446 -445 -90 0
-447 1 0
-447 332 0
447 -1 -332 0
-448 447 0
-448 95 0
448 -447 -95 0
449 -446 0
449 -448 0
-449 446 448 0
450 -444 0
450 -449 0
-450 444 449 0
451 -439 0
451 -450 0
-451 439 450 0
-452 1 0
-452 338 0
452 -1 -338 0
-453 452 0
-453 105 0
453 -452 -105 0
-455 1 0
-455 454 0
455 -1 -454 0
-456 455 0
-456 110 0
456 -455 -110 0
457 -453 0
457 -456 0
-457 453 456 0
-458 1 0
-458 343 0
458 -1 -343 0
-459 458 0
-459 115 0
459 -458 -115 0
-460 1 0
-460 346 0
460 -1 -346 0
-461 460 0
-461 120 0
461 -460 -120 0
462 -459 0
462 -461 0
-462 459 461 0
463 -457 0
463 -462 0
-463 457 462 0
-464 1 0
-464 351 0
464 -1 -351 0
-465 464 0
-465 130 0
465 -464 -130 0
-466 1 0
-466 354 0
466 -1 -354 0
-467 466 0
-467 135 0
467 -466 -135 0
468 -465 0
468 -467 0
-468 465 467 0
-469 1 0
-469 358 0
469 -1 -358 0
-470 469 0
-470 140 0
470 -469 -140 0
-472 1 0
-472 471 0
472 -1 -471 0
-473 472 0
-473 145 0
473 -472 -145 0
474 -470 0
474 -473 0
-474 470 473 0
475 -468 0
475 -474 0
-475 468 474 0
476 -463 0
476 -475 0
-476 463 475 0
477 -451 0
477 -476 0
-477 451 476 0
-478 367 0
-478 40 0
478 -367 -40 0
-479 370 0
-479 50 0
479 -370 -50 0
480 -478 0
480 -479 0
-480 478 479 0
-481 374 0
-481 60 0
481 -374 -60 0
-482 377 0
-482 70 0
482 -377 -70 0
483 -481 0
483 -482 0
-483 481 482 0
484 -480 0
484 -483 0
-484 480 483 0
-485 382 0
-485 80 0
485 -382 -80 0
-486 385 0
-486 85 0
486 -385 -85 0
487 -485 0
487 -486 0
-487 485 486 0
-488 389 0
-488 90 0
488 -389 -90 0
-489 392 0
-489 95 0
489 -392 -95 0
490 -488 0
490 -489 0
-490 488 489 0
491 -487 0
491 -490 0
-491 487 490 0
492 -484 0
492 -491 0
-492 484 491 0
-493 399 0
-493 105 0
493 -399 -105 0
-495 2 0
-495 494 0
495 -2 -494 0
-496 495 0
-496 110 0
496 -495 -110 0
497 -493 0
497 -496 0
-497 493 496 0
-498 404 0
-498 115 0
498 -404 -115 0
-499 407 0
-499 120 0
499 -407 -120 0
500 -498 0
500 -499 0
-500 498 499 0
501 -497 0
501 -500 0
-501 497 500 0
-502 412 0
-502 130 0
502 -412 -130 0
-503 415 0
-503 135 0
503 -415 -135 0
504 -502 0
504 -503 0
-504 502 503 0
-505 419 0
-505 140 0
505 -419 -140 0
-506 422 0
-506 145 0
506 -422 -145 0
507 -505 0
507 -506 0
-507 505 506 0
508 -504 0
508 -507 0
-508 504 507 0
509 -501 0
509 -508 0
-509 501 508 0
510 -492 0
510 -509 0
-510 492 509 0
511 -477 0
511 -510 0
-511 477 510 0
512 -428 -511 0
512 428 511 0
-512 -428 511 0
-512 428 -511 0
513 -306 0
513 -512 0
-513 306 512 0
513 0
